opti regi defect conp noelectrostatics
title
Defect studies of CeEuO
end
cell
   5.00   5.00   5.00  90.000000  90.000000 90.00
   
fractional


Ce  0.000000   0.000000   0.000000 2.1124    0.9
Cr  0.000000   0.000000   0.000000 2.045    0.1
O1  0.250000   0.250000   0.250000 -1.05283 1.000000
O2  0.750000   0.750000   0.750000 -1.05283 1.000000
 

spacegroup
225

centre O2
vacancy O2
size 6.0 18.0

morse          ener         
Ce core O core 1.4841 2.2573 2.1987 0.000 0.000 6.000
Cr core O core 1.7734 1.9881 1.8389 0.000 0.000 6.000

qerfc          ener
#f=0.71
Ce core Ce core 2.5986 10.0
O core O core 1.0366 10.0
Cr core Cr core 2.3085 10.0
